NAME : bier127.tsp
TYPE : TOUR
DIMENSION : 127
TOUR_LENGTH : 125485.33942047639
TOUR_SECTION
1
16
2
51
50
13
115
10
120
7
105
114
11
9
8
19
22
4
23
24
108
6
106
15
20
17
21
72
18
77
79
80
25
29
32
28
122
33
26
38
39
42
34
43
30
27
31
12
14
41
36
37
35
40
44
103
45
54
57
121
5
56
124
52
64
58
100
3
90
116
60
61
91
62
59
67
73
74
68
71
70
69
75
76
78
117
84
81
126
82
83
101
102
63
119
96
109
88
87
86
85
110
104
125
89
92
99
65
113
66
55
47
49
53
48
118
46
94
112
111
107
127
93
95
123
97
98
-1
